s td 207 12 274
b 1 7 173 259
b 2 17 221 235
b 3 31 95 160
b 4 33 42 221
b 5 44 221 235
b 6 64 95 200
b 7 89 95 103
b 8 90 95 272
b 9 94 95 187
b 10 95 97 120
b 11 95 105 239
b 12 111 221 249
b 13 95 118 125
b 14 95 122 269
b 15 95 124 136
b 16 29 95 127
b 17 5 29 95 131
b 18 5 95 266
b 19 95 144 225
b 20 82 145 173
b 21 95 151 264
b 22 168 182 265
b 23 221 235
b 24 73 95 221
b 25 77 173 252
b 26 73 95
b 27 10 21 27 178
b 28 67 74 77 173
b 29 82 173 194 256
b 30 182 195 214 265
b 31 173 184 186 259
b 32 1 10 22 26 39 73 80 88 101 132 232 242
b 33 10 22 26 39 73 80 88 101 132 148 228 242
b 34 10 22 26 39 73 80 101 104 132 148 228 242
b 35 10 22 26 39 73 80 96 101 104 148 228 242
b 36 10 22 26 39 73 96 101 104 140 148 242
b 37 10 22 26 39 73 96 104 114 140 148 242
b 38 10 11 26 39 73 96 102 104 114 140 233 242
b 39 10 11 26 39 47 73 102 104 140 211 233 242
b 40 10 26 39 47 50 51 73 102 140 211 233 242
b 41 10 26 39 47 50 51 73 140 211 217 233 242
b 42 10 26 39 47 50 51 73 143 211 217 233 242
b 43 10 26 39 47 51 60 73 135 143 217 233 242
b 44 10 26 39 47 51 60 73 135 143 217 226 242
b 45 10 26 39 45 60 73 135 143 217 220 226 242
b 46 10 18 26 39 45 60 73 98 171 220 226 242
b 47 10 18 26 39 69 73 98 137 171 220 226 242
b 48 10 26 27 39 69 73 98 137 171 226 242
b 49 10 26 27 39 69 73 137 139 171 226 237 242
b 50 10 26 27 39 69 73 137 139 171 178 237 242
b 51 10 26 39 69 73 87 137 139 171 178 237 242
b 52 10 13 26 39 69 73 87 139 171 178 237 242
b 53 10 13 26 39 73 87 139 164 171 178 188 242
b 54 10 13 26 39 73 87 149 164 171 178 188 242
b 55 10 13 25 26 39 73 149 164 171 178 188 242
b 56 10 13 25 26 39 73 149 164 178 188 242 274
b 57 10 13 25 26 39 73 149 164 178 242 262 274
b 58 10 13 25 26 39 73 149 178 199 242 262 274
b 59 10 13 26 39 73 149 177 178 199 242 262 274
b 60 10 26 39 73 116 149 177 178 199 238 242 262
b 61 39 73 116 177 178 212 238 242
b 62 2 39 73 116 178 212 242
b 63 116 138 177 212 238
b 64 10 26 30 39 73 116 149 199 202 238 242 262
b 65 10 26 30 39 73 91 116 149 202 238 242 262
b 66 10 26 30 37 39 73 91 149 161 202 238 242
b 67 10 26 30 37 39 73 91 149 152 161 202 242
b 68 10 26 30 37 39 73 126 149 152 161 202 242
b 69 8 10 26 30 39 73 126 149 152 161 202 242
b 70 8 10 26 30 39 73 79 126 152 161 227 242
b 71 10 12 26 30 39 73 79 126 152 227 242
b 72 12 24 30 39 73 79 152 227 242
b 73 24 41 152 227 242
b 74 24 30 73 79 245
b 75 8 10 15 26 39 73 79 161 207 227 242 270
b 76 10 15 26 39 73 79 161 190 192 207 242 270
b 77 10 15 26 39 49 73 161 190 192 242 257 270
b 78 10 15 26 39 49 73 155 161 190 192 242 257
b 79 10 15 26 28 39 49 73 155 190 192 242 257
b 80 10 19 26 28 39 49 73 155 190 192 242 257
b 81 10 19 26 28 39 73 155 192 222 242 257
b 82 10 19 26 39 73 155 192 214 222 242 257
b 83 10 19 26 39 73 155 204 214 222 242 257
b 84 10 19 26 39 73 195 204 214 222 242 268
b 85 10 26 39 73 195 204 214 222 242 265 268
b 86 10 26 39 73 176 195 204 222 242 265 268
b 87 10 26 39 66 73 176 204 222 242 265 268
b 88 26 39 66 73 146 176 204 242 265 268
b 89 26 39 66 73 146 186 204 242 265 268
b 90 26 39 66 67 73 146 186 204 242 265
b 91 26 39 67 73 146 186 194 204 242
b 92 26 39 67 73 173 186 194 242 263
b 93 26 65 67 73 173 194 242 263
b 94 65 67 73 74 173
b 95 65 173 194 242 256
b 96 39 73 112 173 186 242 263
b 97 112 173 184 186 242
b 98 134 146 186 265 268
b 99 10 26 39 66 73 176 222 240 242 265
b 100 10 26 39 73 176 218 240 242 265
b 101 10 26 39 109 176 218
b 102 26 39 49 68 73 242 257 270
b 103 39 49 68 73 123 242 257
b 104 73 79 170 190 192 207 270
b 105 8 15 196 207 227 242 270
b 106 20 37 161 202 238
b 107 91 106 116 202 262
b 108 30 58 116 199 202
b 109 26 73 178 188 224 242 274
b 110 27 39 73 99 139 226 237 242
b 111 73 99 133 139 226 237
b 112 73 99 133 139 216
b 113 18 69 73 98 137 220 234
b 114 18 45 60 98 171 229 242
b 115 26 39 45 73 81 135 143 217 220 242
b 116 26 39 73 81 130 135 242
b 117 6 39 73 81 130
b 118 26 52 130 135 242
b 119 47 51 75 135 226
b 120 36 51 60 135 233
b 121 50 51 143 208 211
b 122 50 51 54 140 217
b 123 10 26 39 50 51 73 102 107 242
b 124 10 26 39 102 107 261
b 125 11 47 73 78 102 104 211
b 126 11 85 96 102 114 233 242
b 127 80 96 148 228 254
b 128 104 132 148 167 228
b 129 1 10 22 26 39 73 76 80 132 185 232 242
b 130 1 10 26 39 73 76 80 119 132 185 232 242
b 131 10 26 39 73 76 108 119 132 185 232 242
b 132 10 26 39 73 76 86 108 119 132 193 232 242
b 133 10 26 39 63 73 76 86 108 132 193 201 242
b 134 10 26 39 63 73 76 86 193 201 242 267
b 135 10 26 39 63 73 76 162 193 201 242 267
b 136 10 26 39 61 73 162 175 193 201 242 260 267
b 137 10 26 39 61 73 162 175 201 223 230 242 260
b 138 10 26 39 73 162 175 223 230 241 242 250 260
b 139 10 26 39 73 84 147 157 223 230 241 242 250
b 140 10 26 39 73 84 117 147 157 223 230 241 242
b 141 26 38 39 73 84 117 147 157 223 230 241 242
b 142 14 38 39 73 84 117 241 242
b 143 3 14 38 84 241 242
b 144 3 38 84 236 241
b 145 26 38 73 117 147 157 165 223 230 242
b 146 38 73 147 165 230 251
b 147 16 38 147 230 251
b 148 38 157 165 223 242 244
b 149 38 141 157 223 244
b 150 10 26 39 73 84 147 157 158 198 242 248 250
b 151 10 26 39 48 73 100 147 158 198 242 248 273
b 152 10 26 39 48 70 73 100 147 198 242 273
b 153 4 26 39 48 70 73 100 147 198 242 273
b 154 4 26 48 70 73 83 100 147 198 273
b 155 4 9 48 73 83 100 147 198 273
b 156 4 9 43 48 100 198
b 157 4 9 43 48 209
b 158 4 9 71 100 147 273
b 159 4 71 100 147 153
b 160 4 39 70 73 100 215 242
b 161 10 26 39 48 73 100 158 191 242 248 273
b 162 10 26 39 48 73 100 158 174 191 242 273
b 163 10 26 39 48 73 163 174 180 191 242 258 273
b 164 10 26 39 46 48 73 159 163 180 191 242 258
b 165 10 26 39 46 55 73 159 180 191 242 258
b 166 10 26 39 46 55 73 159 166 191 242 258
b 167 26 39 46 55 73 128 159 166 191 242 258
b 168 39 40 46 55 73 128 159 166 191 242 258
b 169 40 46 55 73 128 159 191 213 242 247 258
b 170 32 40 46 73 128 159 191 213 242 247 258
b 171 32 35 40 73 128 159 191 213 242 247
b 172 32 35 40 73 128 159 213 242 247 253
b 173 32 35 40 73 128 142 242 247 253
b 174 32 35 40 73 128 142 205 242
b 175 32 35 40 73 92 142 205 242
b 176 23 32 92 142 205
b 177 35 40 73 92 93 205
b 178 35 40 73 93 210
b 179 35 53 191 213 247
b 180 26 39 55 72 180
b 181 46 48 159 163 180 183 242
b 182 73 110 163 174 180 258 273
b 183 26 39 73 84 157 158 198 242 246 248 250 271
b 184 26 39 73 84 179 198 242 246 248 250 271
b 185 26 39 156 179 242 246
b 186 26 115 156 242 246
b 187 84 179 198 242 243 246 248 250 271
b 188 179 198 206 242 243 246 248 250
b 189 181 206 246 248 250
b 190 150 157 158 246 271
b 191 26 39 73 162 175 203 241 242 250 260
b 192 26 39 73 121 175 203 242 250 260
b 193 26 39 73 121 189 203 242 260
b 194 26 73 121 189 203 219 242
b 195 61 129 201 223 230 242 260
b 196 61 73 172 175 193 260 267
b 197 10 26 39 63 73 108 132 154 201 242
b 198 26 34 63 73 132 154 201 242
b 199 34 56 63 132 201
b 200 26 34 57 63 73 154 242
b 201 86 108 113 119 193 232 242
b 202 1 80 119 185 197
b 203 1 22 76 185 231
b 204 1 26 39 73 88 101 232 242 255
b 205 1 26 62 73 101 232 242 255
b 206 1 59 62 101 232 242
b 207 1 59 101 169 232
1 31
2 23
3 26
4 24
5 23
6 26
7 26
8 26
9 26
10 26
11 26
12 24
13 26
14 26
15 26
16 17
17 18
18 26
19 26
20 29
21 26
22 30
23 24
24 26
25 28
26 32
27 50
28 94
29 95
30 85
31 97
32 33
32 129
32 204
33 34
34 35
34 128
35 36
35 127
36 37
37 38
38 39
38 126
39 40
39 125
40 41
40 123
41 42
41 122
42 43
42 121
43 44
43 120
44 45
44 119
45 46
45 115
46 47
46 114
47 48
47 113
48 49
49 50
49 110
50 51
51 52
52 53
53 54
54 55
55 56
56 57
56 109
57 58
58 59
59 60
60 61
60 64
61 62
61 63
64 65
64 108
65 66
65 107
66 67
66 106
67 68
68 69
69 70
70 71
70 75
71 72
72 73
72 74
75 76
75 105
76 77
76 104
77 78
77 102
78 79
79 80
80 81
81 82
82 83
83 84
84 85
85 86
86 87
87 88
87 99
88 89
89 90
89 98
90 91
91 92
92 93
92 96
93 94
93 95
96 97
99 100
100 101
102 103
110 111
111 112
115 116
116 117
116 118
123 124
129 130
129 203
130 131
130 202
131 132
132 133
132 201
133 134
133 197
134 135
135 136
136 137
136 196
137 138
137 195
138 139
138 191
139 140
139 150
140 141
141 142
141 145
142 143
143 144
145 146
145 148
146 147
148 149
150 151
150 183
151 152
151 161
152 153
153 154
153 160
154 155
155 156
155 158
156 157
158 159
161 162
162 163
163 164
163 182
164 165
164 181
165 166
165 180
166 167
167 168
168 169
169 170
170 171
171 172
171 179
172 173
173 174
174 175
175 176
175 177
177 178
183 184
183 190
184 185
184 187
185 186
187 188
188 189
191 192
192 193
193 194
197 198
198 199
198 200
204 205
205 206
206 207
